n = 15;
m = 44;

max_len = 7;
word_lens = [ 4, 4, 4, 4, 4, 4, 4, 4, 5, 5, 5, 5, 5, 5, 5, 5, 5, 5, 5, 5, 6, 6, 6, 6, 6, 6, 6, 6, 6, 6, 6, 6, 6, 7, 7, 7, 7, 7, 7, 7, 7, 7, 7, 7 ];
words = [| B, M, U, D, E, E, E | F, O, O, L, E, E, E | G, L, B, I, E, E, E | D, F, A, T, E, E, E | E, R, D, N, E, E, E | U, O, N, N, E, E, E | O, N, O, G, E, E, E | N, W, K, O, E, E, E | F, Y, S, I, H, E, E | T, L, P, A, O, E, E | R, M, O, N, O, E, E | C, I, A, W, C, E, E | G, A, N, A, P, E, E | I, D, I, T, O, E, E | O, E, Y, H, K, E, E | K, U, Y, M, R, E, E | S, I, Y, L, L, E, E | A, E, N, N, I, E, E | V, Y, A, S, V, E, E | T, I, T, R, E, E, E | T, S, P, D, I, U, E | U, B, S, A, D, R, E | S, N, G, S, I, O, E | A, A, N, R, E, C, E | C, S, E, R, T, E, E | G, E, N, W, A, E, E | T, O, U, E, B, S, E | E, A, D, R, N, D, E | L, U, T, O, C, C, E | I, E, W, S, N, U, E | N, R, A, O, C, H, E | R, M, U, S, P, T, E | J, G, R, O, A, N, E | O, A, U, C, U, S, V | B, R, U, C, S, O, E | B, S, I, I, E, R, L | E, E, T, H, M, L, A | R, L, I, P, E, U, E | E, W, Y, T, G, I, H | N, E, A, M, U, N, D | U, O, T, A, U, F, S | U, T, Y, R, H, G, E | P, C, R, O, A, S, I | T, U, G, S, E, L, S |];

pos_var_strat = first_fail;
pos_val_strat = indomain_median;
